(declare-fun var0 () String)
(declare-fun var1 () String)
(declare-fun var2 () String)
(declare-fun var3 () String)
(declare-fun var4 () String)
(declare-fun var5 () String)
(declare-fun var6 () String)
(declare-fun var7 () String)
(declare-fun var8 () String)
(declare-fun var9 () String)
(declare-fun var10 () String)
(declare-fun var11 () String)
(declare-fun var12 () String)
(declare-fun var13 () String)
(declare-fun var14 () String)
(declare-fun var15 () String)
(declare-fun var16 () String)
(declare-fun var17 () String)
(declare-fun var18 () String)
(declare-fun var19 () String)
(declare-fun var20 () String)
(declare-fun var21 () String)
(declare-fun var22 () String)
(declare-fun var23 () String)
(declare-fun var24 () String)
(declare-fun var25 () String)
(declare-fun var26 () String)
(declare-fun var27 () String)
(declare-fun var28 () String)
(declare-fun var29 () String)
(declare-fun var30 () String)
(declare-fun var31 () String)
(declare-fun var32 () String)
(declare-fun var33 () String)
(declare-fun var34 () String)
(declare-fun var35 () String)
(declare-fun var36 () String)
(declare-fun var37 () String)
(declare-fun var38 () String)
(declare-fun var39 () String)
(declare-fun var40 () String)
(declare-fun var41 () String)
(declare-fun var42 () String)
(declare-fun var43 () String)
(declare-fun var44 () String)
(declare-fun var45 () String)
(declare-fun var46 () String)
(declare-fun var47 () String)
(declare-fun var48 () String)
(declare-fun var49 () String)
(declare-fun var50 () String)
(declare-fun var51 () String)
(declare-fun var52 () String)
(declare-fun var53 () String)
(declare-fun var54 () String)
(declare-fun var55 () String)
(declare-fun var56 () String)
(declare-fun var57 () String)
(declare-fun var58 () String)
(declare-fun var59 () String)
(declare-fun var60 () String)
(assert (= var0 (Concat var1 var2)))
(assert (= var2 (Concat var3 var4)))
(assert (= var4 (Concat var5 var6)))
(assert (= var6 (Concat var7 var8)))
(assert (= var8 (Concat var9 var10)))
(assert (= var10 (Concat var11 var12)))
(assert (= var12 (Concat var13 var14)))
(assert (= var14 (Concat var15 var16)))
(assert (= var16 (Concat var17 var18)))
(assert (= var18 (Concat var19 var20)))
(assert (= var20 (Concat var21 var22)))
(assert (= var22 (Concat var23 var24)))
(assert (= var24 (Concat var25 var26)))
(assert (= var26 (Concat var27 var28)))
(assert (= var28 (Concat var29 var30)))
(assert (= var30 (Concat var31 var32)))
(assert (= var32 (Concat var33 var34)))
(assert (= var34 (Concat var35 var36)))
(assert (= var36 (Concat var37 var38)))
(assert (= var38 (Concat var39 var40)))
(assert (= var40 (Concat var41 var42)))
(assert (= var42 (Concat var43 var44)))
(assert (= var44 (Concat var45 var46)))
(assert (= var46 (Concat var47 var48)))
(assert (= var48 (Concat var49 var50)))
(assert (= var50 (Concat var51 var52)))
(assert (= var52 (Concat var53 var54)))
(assert (= var54 (Concat var55 var56)))
(assert (= var56 (Concat var57 var58)))
(assert (= var58 (Concat var59 var60)))
(assert (= var0 "solution"))
(assert (= "," (CharAt var53 732)))
(assert (= "i" (CharAt var45 689)))
(assert (= "*" (CharAt var18 919)))
(assert (= "`" (CharAt var45 675)))
(assert (= "E" (CharAt var7 253)))
(assert (= "b" (CharAt var55 387)))
(assert (= "H" (CharAt var31 423)))
(assert (= "`" (CharAt var38 539)))
(assert (= "G" (CharAt var44 542)))
(assert (= "J" (CharAt var10 633)))
(assert (= "%" (CharAt var30 603)))
(assert (= "J" (CharAt var10 357)))
(assert (= "+" (CharAt var53 842)))
(assert (= "Z" (CharAt var10 91)))
(assert (= "6" (CharAt var49 978)))
(assert (= "J" (CharAt var50 138)))
(assert (= "(" (CharAt var3 994)))
(assert (= "5" (CharAt var30 741)))
(assert (= "J" (CharAt var40 860)))
(assert (= "(" (CharAt var16 153)))
(assert (= "<" (CharAt var47 795)))
(assert (= "K" (CharAt var45 783)))
(assert (= "o" (CharAt var27 310)))
(assert (= "v" (CharAt var9 190)))
(assert (= "/" (CharAt var45 666)))
(assert (= ";" (CharAt var14 692)))
(assert (= "," (CharAt var17 179)))
(assert (= "$" (CharAt var12 616)))
(assert (= "}" (CharAt var24 43)))
(assert (= "l" (CharAt var7 879)))
(assert (= "A" (CharAt var24 395)))
(assert (= "~" (CharAt var58 998)))
(assert (= "n" (CharAt var60 652)))
(assert (= "b" (CharAt var47 285)))
(assert (= "y" (CharAt var2 55)))
(assert (= "x" (CharAt var29 390)))
(assert (= "!" (CharAt var18 136)))
(assert (= "n" (CharAt var56 775)))
(assert (= "4" (CharAt var19 371)))
(assert (= "4" (CharAt var2 946)))
(assert (= "i" (CharAt var60 699)))
(assert (= "D" (CharAt var34 558)))
(assert (= "'" (CharAt var47 419)))
(assert (= "_" (CharAt var56 386)))
(assert (= "J" (CharAt var28 346)))
(assert (= "c" (CharAt var13 330)))
(assert (= "N" (CharAt var29 246)))
(assert (= "B" (CharAt var42 208)))
(assert (= "^" (CharAt var18 332)))
(assert (= "z" (CharAt var23 707)))
(assert (= "E" (CharAt var50 202)))
(assert (= "(" (CharAt var25 574)))
(assert (= "-" (CharAt var32 647)))
(assert (= "V" (CharAt var52 686)))
(assert (= "H" (CharAt var2 64)))
(assert (= "=" (CharAt var60 785)))
(assert (= "6" (CharAt var21 175)))
(assert (= "G" (CharAt var28 548)))
(assert (= "k" (CharAt var27 201)))
(assert (= "0" (CharAt var51 185)))
(assert (= "6" (CharAt var48 709)))
(assert (= "n" (CharAt var47 296)))
(assert (= "X" (CharAt var22 785)))
(assert (= ")" (CharAt var51 423)))
(assert (= "2" (CharAt var40 428)))
(assert (= "U" (CharAt var39 266)))
(assert (= "]" (CharAt var22 236)))
(assert (= "P" (CharAt var3 960)))
(assert (= "L" (CharAt var15 948)))
(assert (= "0" (CharAt var55 853)))
(assert (= "E" (CharAt var38 215)))
(assert (= "t" (CharAt var48 285)))
(assert (= "C" (CharAt var32 439)))
(assert (= "W" (CharAt var9 198)))
(assert (= "?" (CharAt var0 415)))
(assert (= "'" (CharAt var26 87)))
(assert (= "/" (CharAt var57 82)))
(assert (= "m" (CharAt var44 509)))
(assert (= "v" (CharAt var35 106)))
(assert (= ">" (CharAt var53 384)))
(assert (= "N" (CharAt var45 508)))
(assert (= "0" (CharAt var22 623)))
(assert (= "w" (CharAt var9 83)))
(assert (= "4" (CharAt var24 591)))
(assert (= "a" (CharAt var36 23)))
(assert (= "'" (CharAt var28 593)))
(assert (= "@" (CharAt var4 628)))
(assert (= "w" (CharAt var59 303)))
(assert (= "C" (CharAt var59 601)))
(assert (= "V" (CharAt var16 17)))
(assert (= "(" (CharAt var14 413)))
(assert (= "g" (CharAt var14 915)))
(assert (= "6" (CharAt var2 248)))
(assert (= "=" (CharAt var6 919)))
(assert (= ";" (CharAt var23 555)))
(assert (= "M" (CharAt var60 955)))
(assert (= "7" (CharAt var11 818)))
(assert (= "O" (CharAt var2 802)))
(assert (= "z" (CharAt var2 242)))
(assert (= "X" (CharAt var28 835)))
(assert (= "~" (CharAt var13 1000)))
(assert (= "r" (CharAt var40 472)))
(assert (= "^" (CharAt var19 410)))
(assert (= "0" (CharAt var24 194)))
(assert (= "=" (CharAt var2 0)))
(assert (= "I" (CharAt var38 367)))
(assert (= "\\" (CharAt var45 14)))
(assert (= "." (CharAt var48 721)))
(assert (= "%" (CharAt var38 346)))
(assert (= "i" (CharAt var11 695)))
(assert (= "*" (CharAt var58 495)))
(assert (= "}" (CharAt var17 908)))
(assert (= "L" (CharAt var39 327)))
(assert (= "Q" (CharAt var18 680)))
(assert (= "O" (CharAt var14 227)))
(assert (= "4" (CharAt var55 239)))
(assert (= "p" (CharAt var3 137)))
(assert (= "]" (CharAt var59 295)))
(assert (= "(" (CharAt var37 287)))
(assert (= "2" (CharAt var51 20)))
(assert (= "f" (CharAt var51 24)))
(assert (= "=" (CharAt var17 61)))
(assert (= "0" (CharAt var37 707)))
(assert (= "5" (CharAt var17 384)))
(assert (= "U" (CharAt var5 71)))
(assert (= "2" (CharAt var26 642)))
(assert (= "." (CharAt var8 898)))
(assert (= "T" (CharAt var8 932)))
(assert (= "R" (CharAt var30 64)))
(assert (= "l" (CharAt var44 806)))
(assert (= "V" (CharAt var14 352)))
(assert (= "%" (CharAt var18 442)))
(assert (= "m" (CharAt var38 373)))
(assert (= "%" (CharAt var3 17)))
(assert (= "%" (CharAt var2 957)))
(assert (= "Q" (CharAt var47 807)))
(assert (= "u" (CharAt var39 868)))
(assert (= "\"" (CharAt var10 216)))
(assert (= "u" (CharAt var9 172)))
(assert (= "~" (CharAt var53 756)))
(assert (= "C" (CharAt var12 856)))
(assert (= "q" (CharAt var25 414)))
(assert (= "Z" (CharAt var55 264)))
(assert (= "v" (CharAt var1 449)))
(assert (= "N" (CharAt var3 272)))
(assert (= "u" (CharAt var11 871)))
(assert (= "w" (CharAt var24 779)))
(assert (= "'" (CharAt var58 750)))
(assert (= "1" (CharAt var49 810)))
(assert (= "s" (CharAt var45 604)))
(assert (= "c" (CharAt var46 769)))
(assert (= "(" (CharAt var19 331)))
(assert (= "8" (CharAt var37 873)))
(assert (= "i" (CharAt var28 256)))
(assert (= "0" (CharAt var57 495)))
(assert (= "S" (CharAt var38 352)))
(assert (= "/" (CharAt var48 396)))
(assert (= "V" (CharAt var56 10)))
(assert (= "=" (CharAt var34 342)))
(assert (= "B" (CharAt var44 987)))
(assert (= "[" (CharAt var13 98)))
(assert (= "6" (CharAt var14 200)))
(assert (= "k" (CharAt var26 447)))
(assert (= ";" (CharAt var30 146)))
(assert (= "\\" (CharAt var30 462)))
(assert (= "3" (CharAt var40 804)))
(assert (= "9" (CharAt var56 569)))
(assert (= "U" (CharAt var40 277)))
(assert (= "X" (CharAt var45 364)))
(assert (= "%" (CharAt var19 638)))
(assert (= "$" (CharAt var18 141)))
(assert (= "(" (CharAt var51 385)))
(assert (= "&" (CharAt var29 316)))
(assert (= "7" (CharAt var17 843)))
(assert (= "N" (CharAt var24 830)))
(assert (= "R" (CharAt var18 871)))
(assert (= "h" (CharAt var55 631)))
(assert (= "\\" (CharAt var19 452)))
(assert (= "." (CharAt var46 86)))
(assert (= "7" (CharAt var52 520)))
(assert (= "y" (CharAt var55 99)))
(assert (= "0" (CharAt var1 100)))
(assert (= "j" (CharAt var0 160)))
(assert (= "e" (CharAt var35 270)))
(assert (= "^" (CharAt var52 261)))
(assert (= "`" (CharAt var49 587)))
(assert (= "7" (CharAt var1 482)))
(assert (= "~" (CharAt var45 762)))
(assert (= "8" (CharAt var43 27)))
(assert (= "\\" (CharAt var15 757)))
(assert (= "6" (CharAt var10 777)))
(assert (= "i" (CharAt var16 226)))
(assert (= "j" (CharAt var17 462)))
(assert (= "w" (CharAt var49 633)))
(assert (= "u" (CharAt var50 720)))
(assert (= "x" (CharAt var11 537)))
(assert (= "B" (CharAt var2 150)))
(assert (= "R" (CharAt var60 217)))
(assert (= "N" (CharAt var56 601)))
(assert (= "<" (CharAt var46 772)))
(assert (= "\\" (CharAt var31 863)))
(assert (= "R" (CharAt var3 861)))
(assert (= "Y" (CharAt var56 732)))
(assert (= "a" (CharAt var51 337)))
(assert (= "b" (CharAt var16 621)))
(assert (= "`" (CharAt var19 298)))
(assert (= "F" (CharAt var8 6)))
(assert (= "E" (CharAt var25 542)))
(assert (= "t" (CharAt var39 343)))
(assert (= "u" (CharAt var22 358)))
(assert (= "," (CharAt var42 200)))
(assert (= "W" (CharAt var10 789)))
(assert (= "7" (CharAt var28 941)))
(assert (= "G" (CharAt var22 39)))
(assert (= "b" (CharAt var26 661)))
(assert (= "3" (CharAt var55 811)))
(assert (= "A" (CharAt var11 629)))
(assert (= "/" (CharAt var46 370)))
(assert (= "y" (CharAt var44 553)))
(assert (= "h" (CharAt var22 830)))
(assert (= "*" (CharAt var5 161)))
(assert (= "Q" (CharAt var56 162)))
(assert (= "~" (CharAt var34 953)))
(assert (= "N" (CharAt var37 298)))
(assert (= "\"" (CharAt var59 311)))
(assert (= "D" (CharAt var57 445)))
(assert (= "[" (CharAt var58 21)))
(assert (= "m" (CharAt var13 660)))
(assert (= "S" (CharAt var33 509)))
(assert (= "h" (CharAt var18 766)))
(assert (= "p" (CharAt var59 798)))
(assert (= "b" (CharAt var24 261)))
(assert (= "T" (CharAt var28 146)))
(assert (= "1" (CharAt var50 938)))
(assert (= "t" (CharAt var52 238)))
(assert (= "z" (CharAt var23 770)))
(assert (= "o" (CharAt var23 357)))
(assert (= "T" (CharAt var23 260)))
(assert (= "'" (CharAt var20 881)))
(assert (= "d" (CharAt var12 833)))
(assert (= "\\" (CharAt var27 375)))
(assert (= "J" (CharAt var21 89)))
(assert (= "4" (CharAt var33 555)))
(assert (= "*" (CharAt var46 950)))
(assert (= "Z" (CharAt var46 504)))
(assert (= "," (CharAt var58 270)))
(assert (= "l" (CharAt var37 65)))
(assert (= "m" (CharAt var56 189)))
(assert (= "w" (CharAt var1 702)))
(assert (= "F" (CharAt var2 118)))
(assert (= "o" (CharAt var45 618)))
(assert (= "O" (CharAt var5 98)))
(assert (= "T" (CharAt var55 251)))
(assert (= "w" (CharAt var53 694)))
(assert (= "`" (CharAt var58 303)))
(assert (= "2" (CharAt var56 619)))
(assert (= "k" (CharAt var38 350)))
(assert (= "." (CharAt var17 286)))
(assert (= "Y" (CharAt var15 507)))
(assert (= ">" (CharAt var57 444)))
(assert (= "_" (CharAt var59 551)))
(assert (= "F" (CharAt var2 219)))
(assert (= "g" (CharAt var58 36)))
(assert (= "N" (CharAt var57 738)))
(assert (= "{" (CharAt var21 691)))
(assert (= "7" (CharAt var1 408)))
(assert (= "#" (CharAt var26 519)))
(assert (= "/" (CharAt var46 118)))
(assert (= "~" (CharAt var59 247)))
(assert (= "Q" (CharAt var49 43)))
(assert (= "k" (CharAt var23 830)))
(assert (= "P" (CharAt var37 791)))
(assert (= "#" (CharAt var50 706)))
(assert (= "u" (CharAt var7 96)))
(assert (= "8" (CharAt var16 283)))
(assert (= "B" (CharAt var32 533)))
(assert (= "}" (CharAt var18 183)))
(assert (= "E" (CharAt var51 442)))
(assert (= "Z" (CharAt var1 984)))
(assert (= "b" (CharAt var19 530)))
(assert (= "{" (CharAt var29 587)))
(assert (= "d" (CharAt var4 101)))
(assert (= "^" (CharAt var6 607)))
(assert (= "[" (CharAt var25 407)))
(assert (= "H" (CharAt var51 53)))
(assert (= "I" (CharAt var11 910)))
(assert (= "Y" (CharAt var55 524)))
(assert (= "P" (CharAt var28 797)))
(assert (= "." (CharAt var29 138)))
(assert (= "A" (CharAt var23 635)))
(assert (= "9" (CharAt var4 380)))
(assert (= "Q" (CharAt var49 815)))
(assert (= "p" (CharAt var46 934)))
(assert (= "4" (CharAt var56 893)))
(assert (= "y" (CharAt var45 64)))
(assert (= "E" (CharAt var45 945)))
(assert (= "n" (CharAt var7 238)))
(assert (= "J" (CharAt var33 844)))
(assert (= "f" (CharAt var33 518)))
(assert (= "X" (CharAt var43 389)))
(assert (= "c" (CharAt var43 288)))
(assert (= "<" (CharAt var16 527)))
(assert (= "s" (CharAt var31 711)))
(assert (= ";" (CharAt var42 398)))
(assert (= "p" (CharAt var41 6)))
(assert (= "H" (CharAt var59 700)))
(assert (= "u" (CharAt var18 571)))
(assert (= "7" (CharAt var39 728)))
(assert (= "," (CharAt var49 173)))
(assert (= "?" (CharAt var1 899)))
(assert (= "$" (CharAt var46 154)))
(assert (= "^" (CharAt var59 409)))
(assert (= "3" (CharAt var12 969)))
(assert (= "=" (CharAt var33 166)))
(assert (= "5" (CharAt var4 889)))
(assert (= "\\" (CharAt var39 738)))
(assert (= "t" (CharAt var45 808)))
(assert (= "F" (CharAt var33 572)))
(assert (= "." (CharAt var15 325)))
(assert (= "M" (CharAt var51 34)))
(assert (= "w" (CharAt var4 883)))
(assert (= "K" (CharAt var48 226)))
(assert (= "r" (CharAt var9 215)))
(assert (= "_" (CharAt var32 983)))
(assert (= "*" (CharAt var18 81)))
(assert (= "`" (CharAt var32 468)))
(assert (= "5" (CharAt var57 836)))
(assert (= "#" (CharAt var58 31)))
(assert (= "&" (CharAt var10 798)))
(assert (= "u" (CharAt var53 669)))
(assert (= "d" (CharAt var14 476)))
(assert (= "H" (CharAt var28 934)))
(assert (= "C" (CharAt var3 74)))
(assert (= "2" (CharAt var44 946)))
(assert (= "Z" (CharAt var14 12)))
(assert (= "N" (CharAt var41 838)))
(assert (= "5" (CharAt var10 71)))
(assert (= "`" (CharAt var20 513)))
(assert (= "s" (CharAt var22 10)))
(assert (= "l" (CharAt var39 642)))
(assert (= "w" (CharAt var4 444)))
(assert (= "_" (CharAt var8 915)))
(assert (= "8" (CharAt var33 973)))
(assert (= "E" (CharAt var30 583)))
(assert (= "$" (CharAt var53 737)))
(assert (= "A" (CharAt var0 901)))
(assert (= "U" (CharAt var50 752)))
(assert (= "Y" (CharAt var47 243)))
(assert (= "Y" (CharAt var5 723)))
(assert (= "Q" (CharAt var19 802)))
(assert (= "g" (CharAt var30 562)))
(assert (= "f" (CharAt var8 479)))
(assert (= "0" (CharAt var58 195)))
(assert (= "2" (CharAt var26 764)))
(assert (= "%" (CharAt var17 754)))
(assert (= "$" (CharAt var18 898)))
(assert (= "-" (CharAt var31 580)))
(assert (= "T" (CharAt var14 460)))
(assert (= "r" (CharAt var7 615)))
(assert (= "B" (CharAt var54 641)))
(assert (= "{" (CharAt var48 836)))
(assert (= "j" (CharAt var7 721)))
(assert (= "f" (CharAt var12 983)))
(assert (= "," (CharAt var53 540)))
(assert (= ">" (CharAt var21 929)))
(assert (= "E" (CharAt var30 968)))
(assert (= "A" (CharAt var6 591)))
(assert (= "&" (CharAt var3 661)))
(assert (= "l" (CharAt var23 67)))
(assert (= "j" (CharAt var5 522)))
(assert (= ":" (CharAt var59 893)))
(assert (= "H" (CharAt var31 755)))
(assert (= ")" (CharAt var1 700)))
(assert (= "`" (CharAt var48 402)))
(assert (= "u" (CharAt var16 489)))
(assert (= "i" (CharAt var41 511)))
(assert (= "V" (CharAt var47 436)))
(assert (= "\"" (CharAt var1 163)))
(assert (= "*" (CharAt var45 933)))
(assert (= "y" (CharAt var8 399)))
(assert (= "$" (CharAt var11 610)))
(assert (= "f" (CharAt var59 42)))
(assert (= "*" (CharAt var26 103)))
(assert (= "{" (CharAt var9 975)))
(assert (= "U" (CharAt var51 779)))
(assert (= "C" (CharAt var38 964)))
(assert (= "o" (CharAt var54 585)))
(assert (= "v" (CharAt var31 343)))
(assert (= "^" (CharAt var24 878)))
(assert (= "9" (CharAt var39 155)))
(assert (= "L" (CharAt var46 566)))
(assert (= "*" (CharAt var55 337)))
(assert (= "v" (CharAt var28 30)))
(assert (= "o" (CharAt var10 207)))
(assert (= "&" (CharAt var47 555)))
(assert (= "T" (CharAt var22 831)))
(assert (= "z" (CharAt var3 126)))
(assert (= "0" (CharAt var54 592)))
(assert (= "}" (CharAt var13 421)))
(assert (= "_" (CharAt var35 81)))
(assert (= "6" (CharAt var44 496)))
(assert (= "n" (CharAt var4 890)))
(assert (= "U" (CharAt var49 462)))
(assert (= "Q" (CharAt var33 429)))
(assert (= ")" (CharAt var40 15)))
(assert (= "=" (CharAt var0 515)))
(assert (= "V" (CharAt var46 650)))
(assert (= "#" (CharAt var60 935)))
(assert (= "-" (CharAt var7 590)))
(assert (= "J" (CharAt var36 973)))
(assert (= "n" (CharAt var30 16)))
(assert (= "Y" (CharAt var36 307)))
(assert (= "p" (CharAt var34 1000)))
(assert (= "|" (CharAt var19 557)))
(assert (= "f" (CharAt var19 19)))
(assert (= "$" (CharAt var37 933)))
(assert (= "T" (CharAt var36 717)))
(assert (= "+" (CharAt var27 25)))
(assert (= "g" (CharAt var52 236)))
(assert (= "W" (CharAt var16 711)))
(assert (= "8" (CharAt var24 480)))
(assert (= "a" (CharAt var38 157)))
(assert (= "X" (CharAt var54 942)))
(assert (= "d" (CharAt var34 886)))
(assert (= ";" (CharAt var55 53)))
(assert (= "6" (CharAt var9 907)))
(assert (= "x" (CharAt var33 608)))
(assert (= "C" (CharAt var15 350)))
(assert (= "9" (CharAt var12 74)))
(assert (= "X" (CharAt var24 580)))
(assert (= ";" (CharAt var37 604)))
(assert (= "A" (CharAt var23 258)))
(assert (= "~" (CharAt var29 221)))
(assert (= "i" (CharAt var19 175)))
(assert (= "C" (CharAt var37 821)))
(assert (= "=" (CharAt var24 522)))
(assert (= "f" (CharAt var13 304)))
(assert (= "3" (CharAt var54 566)))
(assert (= "o" (CharAt var45 321)))
(assert (= "n" (CharAt var10 988)))
(assert (= "%" (CharAt var10 238)))
(assert (= "L" (CharAt var21 681)))
(assert (= "]" (CharAt var10 168)))
(assert (= "J" (CharAt var28 632)))
(assert (= ":" (CharAt var53 978)))
(assert (= "%" (CharAt var21 634)))
(assert (= "K" (CharAt var22 975)))
(assert (= ">" (CharAt var60 273)))
(assert (= ")" (CharAt var58 425)))
(assert (= "k" (CharAt var46 838)))
(assert (= "+" (CharAt var2 536)))
(assert (= "n" (CharAt var40 572)))
(assert (= "B" (CharAt var3 564)))
(assert (= "'" (CharAt var29 585)))
(assert (= "w" (CharAt var49 872)))
(assert (= "|" (CharAt var37 201)))
(assert (= "r" (CharAt var44 758)))
(assert (= "K" (CharAt var47 141)))
(assert (= "$" (CharAt var32 471)))
(assert (= "V" (CharAt var25 108)))
(assert (= "e" (CharAt var56 900)))
(assert (= "&" (CharAt var54 342)))
(assert (= "r" (CharAt var26 808)))
(assert (= "y" (CharAt var17 916)))
(assert (= "[" (CharAt var51 443)))
(assert (= "R" (CharAt var18 490)))
(assert (= "}" (CharAt var50 507)))
(assert (= "e" (CharAt var36 997)))
(assert (= "_" (CharAt var21 492)))
(assert (= "R" (CharAt var42 563)))
(assert (= "l" (CharAt var56 624)))
(assert (= "?" (CharAt var51 794)))
(assert (= "L" (CharAt var28 321)))
(assert (= "4" (CharAt var10 753)))
(assert (= "J" (CharAt var11 767)))
(assert (= "L" (CharAt var59 934)))
(assert (= "$" (CharAt var0 348)))
(assert (= "#" (CharAt var55 942)))
(assert (= "]" (CharAt var32 54)))
(assert (= "_" (CharAt var30 340)))
(assert (= "t" (CharAt var42 396)))
(assert (= "z" (CharAt var57 650)))
(assert (= "!" (CharAt var53 834)))
(assert (= "I" (CharAt var34 647)))
(assert (= "!" (CharAt var28 866)))
(assert (= "p" (CharAt var2 254)))
(assert (= "}" (CharAt var33 933)))
(assert (= "\"" (CharAt var11 492)))
(assert (= "r" (CharAt var58 87)))
(assert (= "D" (CharAt var25 812)))
(assert (= "_" (CharAt var48 244)))
(assert (= "7" (CharAt var27 674)))
(assert (= "g" (CharAt var4 53)))
(assert (= "l" (CharAt var26 575)))
(assert (= "y" (CharAt var60 667)))
(assert (= "u" (CharAt var19 54)))
(assert (= "p" (CharAt var3 683)))
(assert (= "%" (CharAt var60 278)))
(assert (= "v" (CharAt var5 432)))
(assert (= "`" (CharAt var33 327)))
(assert (= "s" (CharAt var6 578)))
(assert (= "v" (CharAt var43 503)))
(assert (= "H" (CharAt var1 758)))
(assert (= "1" (CharAt var24 980)))
(assert (= "]" (CharAt var30 670)))
(assert (= "r" (CharAt var54 966)))
(assert (= "y" (CharAt var18 608)))
(assert (= ":" (CharAt var52 562)))
(assert (= "^" (CharAt var49 372)))
(assert (= "/" (CharAt var50 552)))
(assert (= "%" (CharAt var59 242)))
(assert (= "W" (CharAt var57 663)))
(assert (= "c" (CharAt var58 858)))
(assert (= "?" (CharAt var36 213)))
(assert (= "#" (CharAt var8 138)))
(assert (= "s" (CharAt var20 384)))
(assert (= "0" (CharAt var30 167)))
(assert (= "J" (CharAt var19 771)))
(assert (= "c" (CharAt var21 727)))
(assert (= "o" (CharAt var55 187)))
(assert (= "p" (CharAt var47 366)))
(assert (= "=" (CharAt var32 911)))
(assert (= "J" (CharAt var35 65)))
(assert (= "}" (CharAt var56 380)))
(assert (= "|" (CharAt var34 444)))
(assert (= "w" (CharAt var10 957)))
(assert (= "f" (CharAt var38 649)))
(assert (= "d" (CharAt var16 603)))
(assert (= "S" (CharAt var47 266)))
(assert (= "q" (CharAt var10 812)))
(assert (= "q" (CharAt var13 540)))
(assert (= "6" (CharAt var47 16)))
(assert (= "p" (CharAt var44 24)))
(assert (= "y" (CharAt var44 688)))
(assert (= "g" (CharAt var5 632)))
(assert (= "}" (CharAt var48 679)))
(assert (= "^" (CharAt var44 1000)))
(assert (= "[" (CharAt var21 657)))
(assert (= "N" (CharAt var49 811)))
(assert (= "2" (CharAt var2 606)))
(assert (= "d" (CharAt var18 780)))
(assert (= "V" (CharAt var8 207)))
(assert (= "g" (CharAt var19 487)))
(assert (= "g" (CharAt var35 267)))
(assert (= "o" (CharAt var41 789)))
(assert (= "p" (CharAt var41 747)))
(assert (= "0" (CharAt var38 832)))
(assert (= "~" (CharAt var34 615)))
(assert (= "c" (CharAt var0 579)))
(assert (= "N" (CharAt var59 139)))
(assert (= "m" (CharAt var24 171)))
(assert (= "." (CharAt var11 979)))
(assert (= "." (CharAt var47 79)))
(assert (= "e" (CharAt var42 681)))
(assert (= "$" (CharAt var33 958)))
(assert (= "~" (CharAt var11 111)))
(assert (= "6" (CharAt var45 378)))
(assert (= "F" (CharAt var39 298)))
(assert (= "D" (CharAt var51 634)))
(assert (= "2" (CharAt var30 153)))
(assert (= "o" (CharAt var15 235)))
(assert (= "f" (CharAt var29 628)))
(assert (= "%" (CharAt var55 384)))
(assert (= "G" (CharAt var43 602)))
(assert (= "O" (CharAt var26 684)))
(assert (= "A" (CharAt var17 944)))
(assert (= "%" (CharAt var4 167)))
(assert (= "K" (CharAt var8 626)))
(assert (= "(" (CharAt var19 809)))
(assert (= "F" (CharAt var43 718)))
(assert (= "v" (CharAt var30 845)))
(assert (= "x" (CharAt var0 902)))
(assert (= "]" (CharAt var38 321)))
(assert (= "3" (CharAt var34 631)))
(assert (= "X" (CharAt var34 275)))
(assert (= "a" (CharAt var13 288)))
(assert (= "l" (CharAt var17 645)))
(assert (= "0" (CharAt var2 416)))
(assert (= ";" (CharAt var37 17)))
(assert (= "|" (CharAt var18 47)))
(assert (= "?" (CharAt var40 468)))
(assert (= "0" (CharAt var30 638)))
(assert (= "Z" (CharAt var5 529)))
(assert (= "P" (CharAt var24 858)))
(assert (= "c" (CharAt var36 940)))
(assert (= "|" (CharAt var46 346)))
(assert (= "_" (CharAt var52 218)))
(assert (= "D" (CharAt var27 744)))
(assert (= "f" (CharAt var47 274)))
(assert (= "Y" (CharAt var23 728)))
(assert (= "j" (CharAt var9 16)))
(assert (= "P" (CharAt var33 28)))
(assert (= "^" (CharAt var24 280)))
(assert (= "Y" (CharAt var10 426)))
(assert (= "@" (CharAt var50 882)))
(assert (= "[" (CharAt var9 941)))
(assert (= "}" (CharAt var47 203)))
(assert (= "t" (CharAt var48 551)))
(assert (= "q" (CharAt var12 26)))
(assert (= "`" (CharAt var27 784)))
(assert (= "V" (CharAt var45 575)))
(assert (= "S" (CharAt var21 403)))
(assert (= "N" (CharAt var57 17)))
(assert (= ":" (CharAt var53 922)))
(assert (= "f" (CharAt var2 920)))
(assert (= "P" (CharAt var5 355)))
(assert (= "(" (CharAt var59 26)))
(assert (= "X" (CharAt var46 996)))
(assert (= "8" (CharAt var7 161)))
(assert (= "K" (CharAt var18 959)))
(assert (= "9" (CharAt var34 702)))
(assert (= "Q" (CharAt var10 818)))
(assert (= "e" (CharAt var48 79)))
(assert (= "!" (CharAt var38 224)))
(assert (= "_" (CharAt var16 475)))
(assert (= "Q" (CharAt var39 518)))
(assert (= "o" (CharAt var2 224)))
(assert (= "$" (CharAt var29 487)))
(assert (= "1" (CharAt var37 24)))
(assert (= "l" (CharAt var48 362)))
(assert (= "'" (CharAt var35 5)))
(assert (= "c" (CharAt var60 893)))
(assert (= "s" (CharAt var32 951)))
(assert (= "%" (CharAt var12 256)))
(assert (= "T" (CharAt var13 166)))
(assert (= "`" (CharAt var25 585)))
(assert (= "_" (CharAt var50 739)))
(assert (= "C" (CharAt var42 976)))
(assert (= "s" (CharAt var51 126)))
(assert (= "x" (CharAt var32 955)))
(assert (= "~" (CharAt var60 112)))
(assert (= "5" (CharAt var35 233)))
(assert (= "]" (CharAt var26 578)))
(assert (= "N" (CharAt var0 668)))
(assert (= "a" (CharAt var8 770)))
(assert (= "y" (CharAt var41 763)))
(assert (= "?" (CharAt var54 780)))
(assert (= ")" (CharAt var21 185)))
(assert (= "4" (CharAt var47 836)))
(assert (= "2" (CharAt var13 790)))
(assert (= "=" (CharAt var57 841)))
(assert (= "y" (CharAt var4 925)))
(assert (= "M" (CharAt var43 522)))
(assert (= "I" (CharAt var31 865)))
(assert (= "`" (CharAt var21 16)))
(assert (= "5" (CharAt var32 122)))
(assert (= "4" (CharAt var18 494)))
(assert (= "6" (CharAt var48 321)))
(assert (= "[" (CharAt var36 894)))
(assert (= "+" (CharAt var39 96)))
(assert (= "`" (CharAt var35 635)))
(assert (= "j" (CharAt var27 608)))
(assert (= "G" (CharAt var33 190)))
(assert (= "\"" (CharAt var58 442)))
(assert (= "j" (CharAt var41 852)))
(assert (= "A" (CharAt var3 132)))
(assert (= "z" (CharAt var46 327)))
(assert (= "#" (CharAt var24 718)))
(assert (= "c" (CharAt var24 278)))
(assert (= "V" (CharAt var14 533)))
(assert (= "g" (CharAt var59 453)))
(assert (= ">" (CharAt var25 971)))
(assert (= "1" (CharAt var19 721)))
(assert (= "}" (CharAt var36 149)))
(assert (= "7" (CharAt var5 193)))
(assert (= "%" (CharAt var42 725)))
(assert (= "!" (CharAt var5 160)))
(assert (= "." (CharAt var42 463)))
(assert (= "[" (CharAt var10 623)))
(assert (= ")" (CharAt var47 857)))
(assert (= "f" (CharAt var50 589)))
(assert (= "1" (CharAt var30 52)))
(assert (= "R" (CharAt var28 605)))
(assert (= "H" (CharAt var27 976)))
(assert (= "6" (CharAt var2 635)))
(assert (= "f" (CharAt var58 584)))
(assert (= "D" (CharAt var22 669)))
(assert (= "W" (CharAt var35 702)))
(assert (= "j" (CharAt var0 16)))
(assert (= "w" (CharAt var54 281)))
(assert (= "V" (CharAt var20 377)))
(assert (= "Y" (CharAt var8 117)))
(assert (= "g" (CharAt var17 511)))
(assert (= "U" (CharAt var29 47)))
(assert (= "r" (CharAt var44 15)))
(assert (= "~" (CharAt var22 487)))
(assert (= "H" (CharAt var55 416)))
(assert (= "#" (CharAt var43 987)))
(assert (= "G" (CharAt var21 552)))
(assert (= "4" (CharAt var52 71)))
(assert (= "7" (CharAt var16 468)))
(assert (= "V" (CharAt var14 901)))
(assert (= "V" (CharAt var0 924)))
(assert (= "s" (CharAt var56 917)))
(assert (= "K" (CharAt var8 577)))
(assert (= "{" (CharAt var27 34)))
(assert (= "p" (CharAt var32 528)))
(assert (= "2" (CharAt var34 213)))
(assert (= "v" (CharAt var7 947)))
(assert (= "b" (CharAt var58 932)))
(assert (= "?" (CharAt var7 657)))
(assert (= "s" (CharAt var57 384)))
(assert (= "'" (CharAt var23 805)))
(assert (= "Q" (CharAt var22 165)))
(assert (= "P" (CharAt var55 560)))
(assert (= "l" (CharAt var26 552)))
(assert (= "L" (CharAt var14 46)))
(assert (= "G" (CharAt var7 738)))
(assert (= ";" (CharAt var29 416)))
(assert (= "y" (CharAt var21 676)))
(assert (= "2" (CharAt var16 861)))
(assert (= "2" (CharAt var21 455)))
(assert (= "+" (CharAt var12 909)))
(assert (= "T" (CharAt var49 143)))
(assert (= "o" (CharAt var6 761)))
(assert (= "f" (CharAt var35 538)))
(assert (= "j" (CharAt var2 807)))
(assert (= "," (CharAt var2 88)))
(assert (= "J" (CharAt var4 549)))
(assert (= "{" (CharAt var12 936)))
(assert (= "[" (CharAt var12 150)))
(assert (= "]" (CharAt var44 243)))
(assert (= "s" (CharAt var29 542)))
(assert (= "~" (CharAt var37 563)))
(assert (= ":" (CharAt var4 829)))
(assert (= "!" (CharAt var23 883)))
(assert (= "V" (CharAt var14 817)))
(assert (= "W" (CharAt var1 302)))
(assert (= "\"" (CharAt var10 393)))
(assert (= "g" (CharAt var25 869)))
(assert (= "R" (CharAt var29 658)))
(assert (= "!" (CharAt var27 873)))
(assert (= "F" (CharAt var29 128)))
(assert (= "r" (CharAt var39 681)))
(assert (= "e" (CharAt var2 143)))
(assert (= "n" (CharAt var37 519)))
(assert (= "." (CharAt var42 932)))
(assert (= "r" (CharAt var48 740)))
(assert (= "?" (CharAt var43 490)))
(assert (= "Z" (CharAt var49 498)))
(assert (= "+" (CharAt var44 523)))
(assert (= "{" (CharAt var36 81)))
(assert (= "8" (CharAt var30 967)))
(assert (= "s" (CharAt var7 706)))
(assert (= "+" (CharAt var33 736)))
(assert (= "&" (CharAt var15 29)))
(assert (= "U" (CharAt var32 446)))
(assert (= "\"" (CharAt var27 844)))
(assert (= "h" (CharAt var58 810)))
(assert (= "6" (CharAt var13 147)))
(assert (= "N" (CharAt var55 856)))
(assert (= "m" (CharAt var2 939)))
(assert (= "-" (CharAt var45 841)))
(assert (= "6" (CharAt var30 570)))
(assert (= "D" (CharAt var29 16)))
(assert (= "(" (CharAt var27 407)))
(assert (= "c" (CharAt var17 698)))
(assert (= "]" (CharAt var49 458)))
(assert (= "u" (CharAt var32 121)))
(assert (= "y" (CharAt var55 762)))
(assert (= "y" (CharAt var25 569)))
(assert (= "}" (CharAt var54 414)))
(assert (= "]" (CharAt var34 381)))
(assert (= "|" (CharAt var54 84)))
(assert (= "G" (CharAt var26 897)))
(assert (= "V" (CharAt var20 146)))
(assert (= "g" (CharAt var36 353)))
(assert (= "~" (CharAt var32 775)))
(assert (= "Q" (CharAt var57 421)))
(assert (= "2" (CharAt var13 782)))
(assert (= "h" (CharAt var59 286)))
(assert (= "Z" (CharAt var44 154)))
(assert (= "/" (CharAt var46 987)))
(assert (= "+" (CharAt var58 664)))
(assert (= "k" (CharAt var11 208)))
(assert (= "`" (CharAt var1 818)))
(assert (= "9" (CharAt var26 8)))
(assert (= "l" (CharAt var46 19)))
(assert (= "7" (CharAt var26 791)))
(assert (= "|" (CharAt var25 217)))
(assert (= "I" (CharAt var39 622)))
(assert (= "6" (CharAt var8 383)))
(assert (= "w" (CharAt var59 494)))
(assert (= "N" (CharAt var1 831)))
(assert (= "i" (CharAt var39 937)))
(assert (= "7" (CharAt var33 953)))
(assert (= "\\" (CharAt var30 366)))
(assert (= ";" (CharAt var23 52)))
(assert (= "," (CharAt var30 179)))
(assert (= "0" (CharAt var57 991)))
(assert (= "l" (CharAt var18 735)))
(assert (= "1" (CharAt var56 253)))
(assert (= "`" (CharAt var12 444)))
(assert (= "m" (CharAt var40 373)))
(assert (= "@" (CharAt var8 369)))
(assert (= "r" (CharAt var7 71)))
(assert (= "<" (CharAt var11 344)))
(assert (= "[" (CharAt var50 830)))
(assert (= "+" (CharAt var52 506)))
(assert (= "/" (CharAt var54 929)))
(assert (= "#" (CharAt var38 322)))
(assert (= "_" (CharAt var36 415)))
(assert (= "f" (CharAt var54 927)))
(assert (= "|" (CharAt var33 461)))
(assert (= "8" (CharAt var12 169)))
(assert (= "." (CharAt var30 550)))
(assert (= ")" (CharAt var23 281)))
(assert (= "Q" (CharAt var28 778)))
(assert (= "P" (CharAt var13 374)))
(assert (= "Y" (CharAt var34 585)))
(assert (= "`" (CharAt var18 824)))
(assert (= "p" (CharAt var42 503)))
(assert (= "0" (CharAt var6 884)))
(assert (= "D" (CharAt var9 284)))
(assert (= "W" (CharAt var9 147)))
(assert (= "#" (CharAt var38 585)))
(assert (= "r" (CharAt var35 180)))
(assert (= "a" (CharAt var42 216)))
(assert (= "A" (CharAt var8 139)))
(assert (= "<" (CharAt var19 184)))
(assert (= "6" (CharAt var4 406)))
(assert (= "N" (CharAt var1 363)))
(assert (= "]" (CharAt var4 583)))
(assert (= "V" (CharAt var30 801)))
(assert (= "^" (CharAt var37 899)))
(assert (= "5" (CharAt var38 1)))
(assert (= "5" (CharAt var31 699)))
(assert (= "1" (CharAt var22 547)))
(assert (= "g" (CharAt var5 856)))
(assert (= "<" (CharAt var32 399)))
(assert (= "E" (CharAt var56 933)))
(assert (= "n" (CharAt var26 772)))
(assert (= ";" (CharAt var45 304)))
(assert (= "$" (CharAt var44 956)))
(assert (= "}" (CharAt var28 522)))
(assert (= "g" (CharAt var44 831)))
(assert (= "4" (CharAt var7 49)))
(assert (= "_" (CharAt var21 43)))
(assert (= "8" (CharAt var38 402)))
(assert (= "E" (CharAt var42 907)))
(assert (= "?" (CharAt var12 186)))
(check-sat)